64
1 0 13
2 0 22
2 1 15
3 0 16
3 1 20
3 2 12
4 0 24
4 1 13
4 2 37
4 3 30
5 0 4
5 1 12
5 2 3
5 3 7
5 4 10
6 0 30
6 1 10
6 2 12
6 3 14
6 4 19
6 5 34
7 0 2
7 1 36
7 2 14
7 3 11
7 4 5
7 5 18
7 6 5
8 0 38
8 1 30
8 2 31
8 3 16
8 4 39
8 5 12
8 6 4
8 7 20
9 0 37
9 1 37
9 2 15
9 3 4
9 4 12
9 5 38
9 6 32
9 7 15
9 8 38
10 0 19
10 1 17
10 2 27
10 3 39
10 4 38
10 5 37
10 6 21
10 7 5
10 8 33
10 9 23
11 0 8
11 1 30
11 2 16
11 3 20
11 4 4
11 5 39
11 6 27
11 7 38
11 8 32
11 9 8
11 10 32
12 0 11
12 1 38
12 2 12
12 3 6
12 4 18
12 5 2
12 6 26
12 7 20
12 8 34
12 9 2
12 10 3
12 11 25
13 0 8
13 1 21
13 2 12
13 3 7
13 4 4
13 5 14
13 6 28
13 7 9
13 8 21
13 9 13
13 10 1
13 11 34
13 12 11
14 0 9
14 1 30
14 2 21
14 3 4
14 4 13
14 5 9
14 6 9
14 7 34
14 8 11
14 9 12
14 10 12
14 11 26
14 12 29
14 13 38
15 0 3
15 1 33
15 2 13
15 3 8
15 4 7
15 5 36
15 6 32
15 7 25
15 8 9
15 9 26
15 10 16
15 11 4
15 12 21
15 13 36
15 14 34
16 0 39
16 1 27
16 2 36
16 3 18
16 4 3
16 5 17
16 6 31
16 7 9
16 8 39
16 9 3
16 10 16
16 11 4
16 12 2
16 13 13
16 14 30
16 15 22
17 0 24
17 1 14
17 2 5
17 3 10
17 4 2
17 5 13
17 6 22
17 7 13
17 8 28
17 9 39
17 10 19
17 11 33
17 12 38
17 13 35
17 14 14
17 15 13
17 16 38
18 0 6
18 1 23
18 2 6
18 3 14
18 4 7
18 5 28
18 6 21
18 7 22
18 8 22
18 9 25
18 10 15
18 11 29
18 12 39
18 13 11
18 14 2
18 15 5
18 16 10
18 17 16
19 0 36
19 1 27
19 2 3
19 3 24
19 4 8
19 5 16
19 6 39
19 7 37
19 8 27
19 9 34
19 10 7
19 11 16
19 12 38
19 13 7
19 14 30
19 15 11
19 16 15
19 17 14
19 18 20
20 0 5
20 1 11
20 2 38
20 3 25
20 4 9
20 5 21
20 6 8
20 7 37
20 8 2
20 9 36
20 10 34
20 11 36
20 12 20
20 13 24
20 14 18
20 15 16
20 16 16
20 17 4
20 18 9
20 19 26
21 0 25
21 1 2
21 2 36
21 3 14
21 4 13
21 5 30
21 6 18
21 7 16
21 8 10
21 9 2
21 10 29
21 11 9
21 12 30
21 13 21
21 14 27
21 15 9
21 16 16
21 17 23
21 18 29
21 19 35
21 20 36
22 0 9
22 1 25
22 2 2
22 3 36
22 4 4
22 5 13
22 6 17
22 7 2
22 8 12
22 9 5
22 10 19
22 11 1
22 12 4
22 13 18
22 14 20
22 15 29
22 16 28
22 17 38
22 18 23
22 19 35
22 20 37
22 21 34
23 0 10
23 1 9
23 2 24
23 3 19
23 4 13
23 5 21
23 6 13
23 7 24
23 8 34
23 9 15
23 10 25
23 11 13
23 12 37
23 13 21
23 14 24
23 15 33
23 16 21
23 17 38
23 18 37
23 19 1
23 20 1
23 21 5
23 22 20
24 0 23
24 1 2
24 2 9
24 3 34
24 4 30
24 5 19
24 6 11
24 7 5
24 8 10
24 9 37
24 10 33
24 11 9
24 12 34
24 13 9
24 14 36
24 15 16
24 16 31
24 17 9
24 18 12
24 19 17
24 20 23
24 21 28
24 22 9
24 23 7
25 0 20
25 1 20
25 2 20
25 3 5
25 4 21
25 5 10
25 6 5
25 7 13
25 8 2
25 9 34
25 10 1
25 11 22
25 12 21
25 13 6
25 14 30
25 15 32
25 16 18
25 17 6
25 18 10
25 19 27
25 20 37
25 21 22
25 22 12
25 23 25
25 24 22
26 0 37
26 1 18
26 2 32
26 3 19
26 4 16
26 5 23
26 6 24
26 7 29
26 8 31
26 9 28
26 10 4
26 11 24
26 12 23
26 13 2
26 14 13
26 15 26
26 16 20
26 17 25
26 18 23
26 19 7
26 20 26
26 21 31
26 22 30
26 23 20
26 24 16
26 25 1
27 0 37
27 1 38
27 2 25
27 3 27
27 4 39
27 5 8
27 6 24
27 7 10
27 8 35
27 9 9
27 10 7
27 11 20
27 12 31
27 13 8
27 14 22
27 15 35
27 16 15
27 17 7
27 18 6
27 19 18
27 20 1
27 21 2
27 22 11
27 23 22
27 24 11
27 25 21
27 26 11
28 0 18
28 1 9
28 2 29
28 3 2
28 4 14
28 5 35
28 6 38
28 7 14
28 8 33
28 9 36
28 10 28
28 11 32
28 12 18
28 13 2
28 14 27
28 15 17
28 16 37
28 17 29
28 18 29
28 19 34
28 20 12
28 21 38
28 22 33
28 23 31
28 24 2
28 25 38
28 26 17
28 27 17
29 0 37
29 1 28
29 2 38
29 3 25
29 4 5
29 5 13
29 6 14
29 7 16
29 8 29
29 9 15
29 10 19
29 11 22
29 12 1
29 13 12
29 14 13
29 15 1
29 16 28
29 17 34
29 18 7
29 19 2
29 20 16
29 21 35
29 22 35
29 23 33
29 24 33
29 25 17
29 26 18
29 27 15
29 28 13
30 0 32
30 1 1
30 2 12
30 3 5
30 4 35
30 5 3
30 6 32
30 7 8
30 8 2
30 9 5
30 10 37
30 11 25
30 12 21
30 13 7
30 14 7
30 15 25
30 16 31
30 17 9
30 18 1
30 19 11
30 20 18
30 21 38
30 22 15
30 23 31
30 24 3
30 25 21
30 26 33
30 27 25
30 28 4
30 29 37
31 0 32
31 1 10
31 2 18
31 3 35
31 4 22
31 5 16
31 6 32
31 7 14
31 8 23
31 9 27
31 10 15
31 11 39
31 12 17
31 13 39
31 14 27
31 15 20
31 16 9
31 17 36
31 18 35
31 19 12
31 20 33
31 21 25
31 22 23
31 23 5
31 24 23
31 25 36
31 26 33
31 27 24
31 28 24
31 29 28
31 30 10
32 0 27
32 1 15
32 2 37
32 3 11
32 4 24
32 5 9
32 6 27
32 7 29
32 8 31
32 9 20
32 10 34
32 11 26
32 12 33
32 13 5
32 14 5
32 15 31
32 16 14
32 17 5
32 18 21
32 19 6
32 20 25
32 21 39
32 22 9
32 23 30
32 24 2
32 25 28
32 26 8
32 27 18
32 28 31
32 29 15
32 30 28
32 31 8
33 0 19
33 1 27
33 2 12
33 3 8
33 4 31
33 5 34
33 6 4
33 7 8
33 8 23
33 9 4
33 10 1
33 11 20
33 12 37
33 13 31
33 14 6
33 15 15
33 16 28
33 17 32
33 18 9
33 19 7
33 20 12
33 21 29
33 22 2
33 23 16
33 24 5
33 25 32
33 26 15
33 27 10
33 28 39
33 29 5
33 30 20
33 31 21
33 32 38
34 0 38
34 1 25
34 2 37
34 3 30
34 4 33
34 5 25
34 6 15
34 7 30
34 8 1
34 9 38
34 10 5
34 11 34
34 12 4
34 13 32
34 14 31
34 15 14
34 16 34
34 17 22
34 18 1
34 19 35
34 20 1
34 21 12
34 22 4
34 23 17
34 24 6
34 25 3
34 26 23
34 27 9
34 28 23
34 29 33
34 30 6
34 31 16
34 32 9
34 33 14
35 0 5
35 1 15
35 2 14
35 3 34
35 4 39
35 5 33
35 6 8
35 7 32
35 8 16
35 9 37
35 10 21
35 11 2
35 12 15
35 13 18
35 14 27
35 15 19
35 16 7
35 17 12
35 18 33
35 19 4
35 20 24
35 21 15
35 22 15
35 23 22
35 24 6
35 25 5
35 26 23
35 27 39
35 28 21
35 29 12
35 30 10
35 31 25
35 32 15
35 33 20
35 34 25
36 0 24
36 1 27
36 2 21
36 3 39
36 4 25
36 5 3
36 6 1
36 7 27
36 8 26
36 9 21
36 10 8
36 11 25
36 12 2
36 13 29
36 14 14
36 15 10
36 16 2
36 17 8
36 18 14
36 19 23
36 20 12
36 21 1
36 22 25
36 23 3
36 24 18
36 25 36
36 26 1
36 27 1
36 28 3
36 29 24
36 30 29
36 31 7
36 32 19
36 33 2
36 34 13
36 35 13
37 0 38
37 1 34
37 2 3
37 3 16
37 4 39
37 5 39
37 6 24
37 7 7
37 8 2
37 9 26
37 10 13
37 11 25
37 12 39
37 13 24
37 14 15
37 15 24
37 16 25
37 17 34
37 18 27
37 19 11
37 20 23
37 21 11
37 22 20
37 23 25
37 24 12
37 25 2
37 26 3
37 27 29
37 28 25
37 29 32
37 30 8
37 31 37
37 32 26
37 33 26
37 34 35
37 35 35
37 36 22
38 0 36
38 1 38
38 2 6
38 3 24
38 4 31
38 5 32
38 6 29
38 7 23
38 8 13
38 9 31
38 10 3
38 11 22
38 12 5
38 13 32
38 14 38
38 15 9
38 16 27
38 17 37
38 18 22
38 19 27
38 20 19
38 21 20
38 22 24
38 23 17
38 24 1
38 25 9
38 26 15
38 27 16
38 28 29
38 29 28
38 30 37
38 31 29
38 32 1
38 33 27
38 34 28
38 35 39
38 36 5
38 37 9
39 0 37
39 1 39
39 2 29
39 3 32
39 4 22
39 5 6
39 6 4
39 7 35
39 8 18
39 9 17
39 10 14
39 11 13
39 12 31
39 13 36
39 14 15
39 15 32
39 16 32
39 17 2
39 18 7
39 19 11
39 20 14
39 21 17
39 22 29
39 23 34
39 24 39
39 25 14
39 26 30
39 27 33
39 28 29
39 29 3
39 30 35
39 31 20
39 32 14
39 33 23
39 34 10
39 35 15
39 36 33
39 37 18
39 38 5
40 0 27
40 1 34
40 2 1
40 3 31
40 4 8
40 5 2
40 6 32
40 7 2
40 8 2
40 9 4
40 10 5
40 11 15
40 12 26
40 13 27
40 14 9
40 15 39
40 16 20
40 17 15
40 18 17
40 19 21
40 20 33
40 21 31
40 22 7
40 23 31
40 24 31
40 25 38
40 26 18
40 27 17
40 28 23
40 29 37
40 30 1
40 31 33
40 32 22
40 33 12
40 34 14
40 35 1
40 36 11
40 37 32
40 38 33
40 39 31
41 0 12
41 1 9
41 2 19
41 3 20
41 4 30
41 5 26
41 6 3
41 7 26
41 8 6
41 9 19
41 10 32
41 11 31
41 12 5
41 13 13
41 14 22
41 15 39
41 16 2
41 17 34
41 18 12
41 19 10
41 20 21
41 21 13
41 22 21
41 23 5
41 24 5
41 25 35
41 26 36
41 27 27
41 28 6
41 29 23
41 30 29
41 31 4
41 32 15
41 33 5
41 34 28
41 35 14
41 36 30
41 37 1
41 38 29
41 39 29
41 40 16
42 0 31
42 1 30
42 2 5
42 3 30
42 4 36
42 5 9
42 6 21
42 7 30
42 8 13
42 9 32
42 10 6
42 11 34
42 12 5
42 13 22
42 14 18
42 15 36
42 16 4
42 17 36
42 18 9
42 19 31
42 20 39
42 21 15
42 22 27
42 23 12
42 24 37
42 25 35
42 26 30
42 27 8
42 28 9
42 29 8
42 30 16
42 31 26
42 32 6
42 33 28
42 34 23
42 35 9
42 36 13
42 37 17
42 38 10
42 39 20
42 40 38
42 41 23
43 0 8
43 1 18
43 2 7
43 3 5
43 4 38
43 5 3
43 6 26
43 7 5
43 8 1
43 9 19
43 10 1
43 11 6
43 12 33
43 13 7
43 14 14
43 15 9
43 16 35
43 17 26
43 18 22
43 19 11
43 20 3
43 21 26
43 22 35
43 23 32
43 24 28
43 25 33
43 26 28
43 27 20
43 28 2
43 29 29
43 30 37
43 31 22
43 32 14
43 33 3
43 34 10
43 35 18
43 36 26
43 37 34
43 38 2
43 39 14
43 40 22
43 41 6
43 42 39
44 0 35
44 1 16
44 2 26
44 3 21
44 4 25
44 5 9
44 6 20
44 7 12
44 8 8
44 9 21
44 10 8
44 11 39
44 12 28
44 13 28
44 14 26
44 15 30
44 16 14
44 17 1
44 18 13
44 19 5
44 20 33
44 21 18
44 22 39
44 23 7
44 24 21
44 25 18
44 26 21
44 27 11
44 28 7
44 29 22
44 30 11
44 31 39
44 32 12
44 33 1
44 34 31
44 35 21
44 36 19
44 37 32
44 38 17
44 39 37
44 40 15
44 41 9
44 42 31
44 43 9
45 0 5
45 1 26
45 2 39
45 3 33
45 4 8
45 5 25
45 6 11
45 7 8
45 8 11
45 9 21
45 10 30
45 11 2
45 12 33
45 13 19
45 14 31
45 15 15
45 16 23
45 17 8
45 18 18
45 19 31
45 20 29
45 21 11
45 22 19
45 23 9
45 24 11
45 25 16
45 26 8
45 27 6
45 28 1
45 29 10
45 30 13
45 31 11
45 32 20
45 33 23
45 34 3
45 35 8
45 36 8
45 37 35
45 38 16
45 39 31
45 40 4
45 41 35
45 42 30
45 43 12
45 44 36
46 0 6
46 1 22
46 2 13
46 3 26
46 4 9
46 5 39
46 6 3
46 7 35
46 8 31
46 9 11
46 10 23
46 11 8
46 12 25
46 13 7
46 14 8
46 15 29
46 16 23
46 17 27
46 18 1
46 19 27
46 20 27
46 21 29
46 22 1
46 23 7
46 24 16
46 25 35
46 26 29
46 27 24
46 28 9
46 29 33
46 30 38
46 31 6
46 32 13
46 33 25
46 34 13
46 35 10
46 36 3
46 37 27
46 38 24
46 39 13
46 40 21
46 41 38
46 42 32
46 43 32
46 44 5
46 45 7
47 0 36
47 1 10
47 2 10
47 3 16
47 4 20
47 5 25
47 6 20
47 7 6
47 8 29
47 9 6
47 10 26
47 11 2
47 12 7
47 13 34
47 14 36
47 15 4
47 16 29
47 17 13
47 18 19
47 19 10
47 20 36
47 21 20
47 22 4
47 23 16
47 24 19
47 25 10
47 26 31
47 27 12
47 28 19
47 29 32
47 30 28
47 31 36
47 32 35
47 33 5
47 34 20
47 35 16
47 36 12
47 37 37
47 38 39
47 39 11
47 40 2
47 41 4
47 42 5
47 43 36
47 44 26
47 45 12
47 46 39
48 0 15
48 1 7
48 2 12
48 3 35
48 4 34
48 5 6
48 6 27
48 7 27
48 8 28
48 9 3
48 10 2
48 11 17
48 12 21
48 13 30
48 14 20
48 15 20
48 16 34
48 17 26
48 18 7
48 19 36
48 20 22
48 21 18
48 22 26
48 23 29
48 24 29
48 25 4
48 26 24
48 27 15
48 28 38
48 29 16
48 30 13
48 31 19
48 32 3
48 33 33
48 34 27
48 35 29
48 36 28
48 37 26
48 38 29
48 39 17
48 40 25
48 41 14
48 42 4
48 43 4
48 44 9
48 45 16
48 46 26
48 47 6
49 0 29
49 1 35
49 2 18
49 3 22
49 4 16
49 5 32
49 6 32
49 7 4
49 8 14
49 9 28
49 10 17
49 11 11
49 12 28
49 13 16
49 14 5
49 15 16
49 16 27
49 17 18
49 18 19
49 19 11
49 20 21
49 21 39
49 22 37
49 23 11
49 24 9
49 25 1
49 26 11
49 27 9
49 28 30
49 29 5
49 30 38
49 31 35
49 32 8
49 33 18
49 34 26
49 35 7
49 36 30
49 37 3
49 38 4
49 39 16
49 40 32
49 41 20
49 42 11
49 43 9
49 44 14
49 45 22
49 46 7
49 47 3
49 48 20
50 0 5
50 1 32
50 2 1
50 3 5
50 4 24
50 5 25
50 6 25
50 7 8
50 8 24
50 9 29
50 10 12
50 11 4
50 12 23
50 13 34
50 14 32
50 15 24
50 16 24
50 17 34
50 18 12
50 19 17
50 20 2
50 21 23
50 22 39
50 23 14
50 24 38
50 25 14
50 26 5
50 27 19
50 28 32
50 29 38
50 30 4
50 31 12
50 32 15
50 33 16
50 34 34
50 35 7
50 36 5
50 37 30
50 38 25
50 39 29
50 40 26
50 41 18
50 42 2
50 43 14
50 44 24
50 45 4
50 46 37
50 47 22
50 48 9
50 49 9
51 0 20
51 1 30
51 2 26
51 3 14
51 4 21
51 5 16
51 6 29
51 7 5
51 8 26
51 9 28
51 10 17
51 11 27
51 12 27
51 13 37
51 14 14
51 15 17
51 16 10
51 17 28
51 18 16
51 19 26
51 20 9
51 21 38
51 22 37
51 23 38
51 24 17
51 25 23
51 26 16
51 27 17
51 28 17
51 29 22
51 30 32
51 31 22
51 32 18
51 33 17
51 34 10
51 35 5
51 36 1
51 37 9
51 38 29
51 39 33
51 40 21
51 41 15
51 42 2
51 43 32
51 44 28
51 45 2
51 46 3
51 47 2
51 48 16
51 49 36
51 50 29
52 0 23
52 1 12
52 2 28
52 3 21
52 4 39
52 5 2
52 6 11
52 7 22
52 8 8
52 9 24
52 10 31
52 11 34
52 12 1
52 13 4
52 14 2
52 15 27
52 16 34
52 17 3
52 18 25
52 19 9
52 20 13
52 21 16
52 22 3
52 23 33
52 24 30
52 25 34
52 26 25
52 27 17
52 28 5
52 29 11
52 30 29
52 31 3
52 32 19
52 33 36
52 34 5
52 35 37
52 36 4
52 37 39
52 38 4
52 39 14
52 40 4
52 41 15
52 42 23
52 43 31
52 44 33
52 45 31
52 46 29
52 47 17
52 48 24
52 49 38
52 50 22
52 51 2
53 0 23
53 1 8
53 2 18
53 3 27
53 4 26
53 5 35
53 6 34
53 7 17
53 8 33
53 9 39
53 10 18
53 11 3
53 12 21
53 13 16
53 14 14
53 15 16
53 16 14
53 17 13
53 18 22
53 19 33
53 20 31
53 21 4
53 22 10
53 23 9
53 24 33
53 25 23
53 26 38
53 27 34
53 28 38
53 29 35
53 30 31
53 31 32
53 32 16
53 33 10
53 34 32
53 35 15
53 36 33
53 37 26
53 38 23
53 39 16
53 40 16
53 41 28
53 42 19
53 43 10
53 44 37
53 45 22
53 46 9
53 47 35
53 48 37
53 49 38
53 50 25
53 51 3
53 52 21
54 0 35
54 1 24
54 2 6
54 3 9
54 4 8
54 5 38
54 6 13
54 7 31
54 8 1
54 9 22
54 10 39
54 11 4
54 12 18
54 13 29
54 14 27
54 15 24
54 16 14
54 17 1
54 18 2
54 19 24
54 20 2
54 21 37
54 22 12
54 23 18
54 24 29
54 25 33
54 26 16
54 27 38
54 28 38
54 29 19
54 30 4
54 31 32
54 32 33
54 33 30
54 34 2
54 35 6
54 36 12
54 37 25
54 38 10
54 39 36
54 40 28
54 41 10
54 42 2
54 43 3
54 44 14
54 45 30
54 46 22
54 47 36
54 48 26
54 49 20
54 50 24
54 51 25
54 52 1
54 53 13
55 0 1
55 1 5
55 2 6
55 3 10
55 4 39
55 5 34
55 6 29
55 7 37
55 8 11
55 9 5
55 10 1
55 11 24
55 12 2
55 13 14
55 14 24
55 15 39
55 16 16
55 17 31
55 18 28
55 19 39
55 20 27
55 21 23
55 22 16
55 23 4
55 24 12
55 25 34
55 26 33
55 27 1
55 28 6
55 29 21
55 30 14
55 31 6
55 32 25
55 33 35
55 34 31
55 35 5
55 36 39
55 37 13
55 38 1
55 39 17
55 40 17
55 41 19
55 42 27
55 43 25
55 44 3
55 45 38
55 46 5
55 47 38
55 48 1
55 49 1
55 50 8
55 51 18
55 52 36
55 53 13
55 54 1
56 0 6
56 1 28
56 2 22
56 3 38
56 4 35
56 5 20
56 6 2
56 7 20
56 8 25
56 9 36
56 10 11
56 11 33
56 12 17
56 13 8
56 14 28
56 15 9
56 16 15
56 17 35
56 18 7
56 19 19
56 20 20
56 21 39
56 22 39
56 23 5
56 24 39
56 25 36
56 26 8
56 27 1
56 28 12
56 29 13
56 30 4
56 31 33
56 32 14
56 33 9
56 34 26
56 35 3
56 36 21
56 37 25
56 38 7
56 39 39
56 40 14
56 41 11
56 42 3
56 43 26
56 44 1
56 45 36
56 46 35
56 47 19
56 48 39
56 49 27
56 50 15
56 51 24
56 52 27
56 53 35
56 54 2
56 55 20
57 0 27
57 1 27
57 2 17
57 3 35
57 4 1
57 5 3
57 6 18
57 7 30
57 8 25
57 9 5
57 10 39
57 11 10
57 12 37
57 13 28
57 14 33
57 15 14
57 16 35
57 17 2
57 18 35
57 19 38
57 20 16
57 21 10
57 22 32
57 23 32
57 24 38
57 25 33
57 26 31
57 27 35
57 28 8
57 29 39
57 30 1
57 31 34
57 32 18
57 33 32
57 34 3
57 35 15
57 36 18
57 37 7
57 38 16
57 39 10
57 40 11
57 41 22
57 42 13
57 43 34
57 44 19
57 45 7
57 46 21
57 47 18
57 48 16
57 49 18
57 50 37
57 51 4
57 52 10
57 53 7
57 54 7
57 55 13
57 56 38
58 0 12
58 1 13
58 2 38
58 3 7
58 4 3
58 5 28
58 6 22
58 7 11
58 8 37
58 9 12
58 10 10
58 11 24
58 12 25
58 13 38
58 14 13
58 15 13
58 16 34
58 17 36
58 18 26
58 19 21
58 20 2
58 21 1
58 22 22
58 23 20
58 24 38
58 25 24
58 26 39
58 27 8
58 28 30
58 29 3
58 30 12
58 31 18
58 32 11
58 33 33
58 34 21
58 35 23
58 36 17
58 37 19
58 38 2
58 39 7
58 40 34
58 41 35
58 42 21
58 43 4
58 44 22
58 45 39
58 46 35
58 47 20
58 48 26
58 49 10
58 50 39
58 51 3
58 52 1
58 53 37
58 54 20
58 55 27
58 56 13
58 57 5
59 0 20
59 1 14
59 2 8
59 3 26
59 4 19
59 5 9
59 6 12
59 7 23
59 8 14
59 9 34
59 10 5
59 11 37
59 12 36
59 13 2
59 14 32
59 15 29
59 16 26
59 17 39
59 18 14
59 19 26
59 20 27
59 21 27
59 22 37
59 23 26
59 24 36
59 25 15
59 26 23
59 27 21
59 28 36
59 29 3
59 30 30
59 31 12
59 32 20
59 33 5
59 34 4
59 35 34
59 36 1
59 37 7
59 38 16
59 39 4
59 40 22
59 41 21
59 42 6
59 43 22
59 44 3
59 45 7
59 46 21
59 47 24
59 48 26
59 49 17
59 50 33
59 51 9
59 52 26
59 53 25
59 54 14
59 55 37
59 56 14
59 57 27
59 58 8
60 0 7
60 1 12
60 2 4
60 3 4
60 4 1
60 5 1
60 6 29
60 7 24
60 8 35
60 9 33
60 10 35
60 11 14
60 12 26
60 13 26
60 14 38
60 15 20
60 16 15
60 17 33
60 18 2
60 19 20
60 20 31
60 21 14
60 22 5
60 23 19
60 24 23
60 25 39
60 26 25
60 27 9
60 28 4
60 29 10
60 30 33
60 31 19
60 32 6
60 33 7
60 34 5
60 35 39
60 36 1
60 37 13
60 38 37
60 39 19
60 40 4
60 41 27
60 42 10
60 43 24
60 44 4
60 45 33
60 46 36
60 47 17
60 48 23
60 49 11
60 50 34
60 51 2
60 52 25
60 53 16
60 54 11
60 55 18
60 56 4
60 57 11
60 58 6
60 59 32
61 0 37
61 1 30
61 2 37
61 3 13
61 4 12
61 5 11
61 6 5
61 7 38
61 8 23
61 9 11
61 10 26
61 11 16
61 12 16
61 13 11
61 14 8
61 15 29
61 16 15
61 17 1
61 18 9
61 19 22
61 20 11
61 21 7
61 22 9
61 23 19
61 24 17
61 25 21
61 26 38
61 27 35
61 28 3
61 29 26
61 30 20
61 31 16
61 32 29
61 33 15
61 34 2
61 35 5
61 36 24
61 37 31
61 38 11
61 39 28
61 40 3
61 41 14
61 42 26
61 43 37
61 44 7
61 45 21
61 46 14
61 47 14
61 48 11
61 49 2
61 50 21
61 51 1
61 52 39
61 53 9
61 54 34
61 55 14
61 56 32
61 57 28
61 58 3
61 59 36
61 60 19
62 0 3
62 1 19
62 2 22
62 3 35
62 4 6
62 5 29
62 6 32
62 7 36
62 8 12
62 9 30
62 10 5
62 11 25
62 12 29
62 13 9
62 14 34
62 15 28
62 16 25
62 17 24
62 18 16
62 19 38
62 20 34
62 21 33
62 22 24
62 23 20
62 24 12
62 25 8
62 26 18
62 27 25
62 28 10
62 29 26
62 30 37
62 31 26
62 32 11
62 33 2
62 34 5
62 35 23
62 36 26
62 37 33
62 38 5
62 39 20
62 40 6
62 41 9
62 42 19
62 43 35
62 44 25
62 45 28
62 46 10
62 47 1
62 48 11
62 49 34
62 50 10
62 51 32
62 52 25
62 53 9
62 54 1
62 55 15
62 56 20
62 57 5
62 58 7
62 59 17
62 60 39
62 61 34
63 0 30
63 1 37
63 2 5
63 3 38
63 4 20
63 5 19
63 6 16
63 7 4
63 8 26
63 9 34
63 10 19
63 11 22
63 12 28
63 13 22
63 14 15
63 15 16
63 16 24
63 17 15
63 18 28
63 19 27
63 20 34
63 21 36
63 22 37
63 23 19
63 24 35
63 25 26
63 26 13
63 27 19
63 28 16
63 29 11
63 30 19
63 31 16
63 32 25
63 33 10
63 34 27
63 35 18
63 36 32
63 37 11
63 38 33
63 39 32
63 40 7
63 41 11
63 42 18
63 43 24
63 44 16
63 45 6
63 46 18
63 47 36
63 48 3
63 49 3
63 50 2
63 51 34
63 52 39
63 53 31
63 54 33
63 55 31
63 56 2
63 57 19
63 58 32
63 59 36
63 60 38
63 61 10
63 62 2
